# 71196
param n := 30;
param s := 1;
set E :=  (0,21) (0,24) (1,5) (1,6) (1,26) (2,18) (3,18) (3,24) (4,16) (4,26) (5,13) (7,23) (8,9) (8,26) (9,13) (10,23) (11,23) (12,16) (12,17) (12,21) (13,14) (13,29) (15,18) (16,19) (18,22) (20,24) (22,26) (23,25) (24,28) (25,26) (27,28);
